objective value:                     1.05038284277854
x(0,4,0)                                            1 	(obj:0)
x(1,2,1)                                            1 	(obj:0)
x(2,3,1)                                            1 	(obj:0)
x(3,11,1)                                           1 	(obj:0)
x(4,7,0)                                            1 	(obj:0)
x(6,0,0)                                            1 	(obj:0)
x(7,16,0)                                           1 	(obj:0)
x(11,1,1)                                           1 	(obj:0)
x(16,6,0)                                           1 	(obj:0)
xc(0,1)                                             1 	(obj:0)
xc(1,0)                                             1 	(obj:0)
xc(2,11)                                            1 	(obj:0)
xc(4,0)                                             1 	(obj:0)
xc(6,7)                                             1 	(obj:0)
xc(7,9)                                             1 	(obj:0)
u(0,0)                               0.34655185656998 	(obj:0)
u(1,0)                               1.05038284277854 	(obj:0)
u(2,1)                               0.21687054797104 	(obj:0)
u(3,1)                              0.650765752348109 	(obj:0)
u(4,0)                               0.37833331627247 	(obj:0)
u(7,0)                               0.87006754960976 	(obj:0)
u(8,1)                               1.05038284277854 	(obj:0)
u(9,1)                               1.05038284277854 	(obj:0)
u(10,0)                              1.05038284277854 	(obj:0)
u(10,1)                              1.05038284277854 	(obj:0)
u(11,0)                              1.05038284277854 	(obj:0)
u(11,1)                              1.05038284277854 	(obj:0)
u(12,0)                              1.05038284277854 	(obj:0)
u(12,1)                              1.05038284277854 	(obj:0)
u(13,0)                              1.05038284277854 	(obj:0)
u(13,1)                              1.05038284277854 	(obj:0)
u(14,0)                              1.05038284277854 	(obj:0)
u(14,1)                              1.05038284277854 	(obj:0)
u(15,0)                              1.05038284277854 	(obj:0)
u(15,1)                              1.05038284277854 	(obj:0)
u(16,0)                              1.05038284277854 	(obj:0)
u(16,1)                              1.05038284277854 	(obj:0)
u(17,0)                              1.05038284277854 	(obj:0)
u(17,1)                              1.05038284277854 	(obj:0)
u(18,0)                              1.05038284277854 	(obj:0)
u(18,1)                              1.05038284277854 	(obj:0)
u(19,0)                              1.05038284277854 	(obj:0)
u(19,1)                              1.05038284277854 	(obj:0)
f(0,1,4)                                            1 	(obj:0)
f(0,4,0)                                            1 	(obj:0)
f(0,4,1)                                            1 	(obj:0)
f(0,4,2)                                            1 	(obj:0)
f(0,4,3)                                            1 	(obj:0)
f(1,0,1)                                            1 	(obj:0)
f(1,0,2)                                            1 	(obj:0)
f(1,0,3)                                            1 	(obj:0)
f(1,0,4)                                            1 	(obj:0)
f(1,2,0)                                            1 	(obj:0)
f(1,2,1)                                            1 	(obj:0)
f(1,2,4)                                            1 	(obj:0)
f(2,3,0)                                            1 	(obj:0)
f(2,3,1)                                            1 	(obj:0)
f(2,11,2)                                           1 	(obj:0)
f(2,11,4)                                           1 	(obj:0)
f(3,11,0)                                           1 	(obj:0)
f(3,11,1)                                           1 	(obj:0)
f(3,11,3)                                           1 	(obj:0)
f(4,7,0)                                            1 	(obj:0)
f(4,7,1)                                            1 	(obj:0)
f(4,7,2)                                            1 	(obj:0)
f(4,7,3)                                            1 	(obj:0)
f(4,7,4)                                            1 	(obj:0)
f(6,7,2)                                            1 	(obj:0)
f(7,9,0)                                            1 	(obj:0)
f(7,9,1)                                            1 	(obj:0)
f(7,9,2)                                            1 	(obj:0)
f(7,9,3)                                            1 	(obj:0)
f(7,9,4)                                            1 	(obj:0)
f(7,16,2)                                           1 	(obj:0)
f(11,1,0)                                           1 	(obj:0)
f(11,1,1)                                           1 	(obj:0)
f(11,1,2)                                           1 	(obj:0)
f(11,1,3)                                           1 	(obj:0)
f(11,1,4)                                           1 	(obj:0)
f(16,6,2)                                           1 	(obj:0)
z_r(0,)                              1.05038284277854 	(obj:0)
z_r(1,)                              1.05038284277854 	(obj:0)
z                                    1.05038284277854 	(obj:1)
